sat
(:max-memory                   18.15
 :memory                       18.05
 :nlsat-irrational-assignments 1
 :nlsat-propagations           4
 :nlsat-stages                 4
 :num-allocs                   34995
 :rlimit-count                 2015
 :time                         0.00
 :total-time                   0.02)
